(set-info :Origin "This instance was generated by: BanditFuzz-- an RL fuzzer for SMT solvers" )
(set-info :Author "Joe Scott, Fed Mora, Vijay Ganesh" )
(set-info :Contact "Joe Scott, joseph.scott@uwaterloo.ca")
(set-logic QF_BV)
(declare-const bool_0 Bool)
(declare-const bool_1 Bool)
(declare-const bool_2 Bool)
(declare-const bool_3 Bool)
(declare-const bool_4 Bool)
(declare-const bv_0 (_ BitVec 32))
(declare-const bv_1 (_ BitVec 32))
(declare-const bv_2 (_ BitVec 32))
(declare-const bv_3 (_ BitVec 32))
(declare-const bv_4 (_ BitVec 32))
(assert (bvsge (bvnor (bvxnor bv_2 #x303444a0 ) (bvnor bv_3 bv_0)) (bvsrem (bvxor bv_4 bv_0) (bvxor bv_2 bv_2))))
(assert (bvsgt (bvsub (bvnand bv_0 bv_0) (bvudiv bv_3 #x866cea11 )) (bvxnor (bvurem #x9d9d5b00  bv_1) (bvnor bv_4 bv_4))))
(assert (bvsle (bvsdiv (bvor bv_2 #xbeb1f54b ) (bvshl #x14172edf  bv_1)) (bvudiv (bvnor bv_1 bv_4) (bvand #x3bb060e8  #x03a37302 ))))
(assert (bvugt (bvsmod (bvnand bv_0 bv_0) (bvsub #xf9728e17  #xcffec13e )) (bvxnor (bvsmod bv_0 bv_1) (bvurem bv_0 #x72c90a23 ))))
(assert (or (bvule (bvand #xb21b0d1b  bv_3) (bvor bv_0 #x7146017e )) (bvule (bvxor bv_3 #xfa4624f7 ) (bvshl bv_0 #x26cfcfd3 ))))
(check-sat)
(exit)
